6
5
17
6
4
5
7
4
10
9
10
10
6
9
3
8
2
6
1
16
2
2
10
4
3
11
4
4
3
12
8
3
2
5
3
2
6
3
7
4
3
5
2
0
4
2
7
5
3
5
2
6
14
2
5
2
5
6
3
2
2
2
3
12
2
2
2
3
3
5
11
2
2
4
4
2
7
2
4
10
3
1
3
2
5
4
5
2
7
4
1
45
3
14
10
3
4
5
11
4
